
Gurobi 9.5.0 (win64, gurobi_cl) logging started Tue Jun  7 11:23:40 2022

Set parameter Username
Set parameter LogFile to value "gurobi.log"
Academic license - for non-commercial use only - expires 2022-12-29
Using license file C:\Users\gijsa\gurobi.lic
